ilp_joint_2/output/hibernation_ilp.lp
Maximize
 
Subject To
 constraint2_290: <= 1
 constraint2_291: <= 1
 constraint2_292: <= 1
 constraint2_293: <= 1
Bounds
End
