ilp_joint_2/output/hibernation_ilp.mps
NAME hibernation_srl_ilp
* Max problem is converted into Min one
ROWS
 N  OBJ
 L  constraint2_290
 L  constraint2_291
 L  constraint2_292
 L  constraint2_293
COLUMNS
RHS
    RHS1      constraint2_290  1
    RHS1      constraint2_291  1
    RHS1      constraint2_292  1
    RHS1      constraint2_293  1
BOUNDS
ENDATA
