ilp_joint_2/output/hibernation_ilp.sol
# Solution for model hibernation_srl_ilp
# Objective value = 0
